c colouring generated by benchmark framework
p edge 450 8260
v 1 8
v 2 7
v 3 1
v 4 9
v 5 23
v 6 13
v 7 14
v 8 2
v 9 8
v 10 13
v 11 5
v 12 11
v 13 0
v 14 5
v 15 1
v 16 11
v 17 16
v 18 1
v 19 12
v 20 22
v 21 7
v 22 7
v 23 10
v 24 5
v 25 4
v 26 19
v 27 0
v 28 22
v 29 3
v 30 5
v 31 5
v 32 8
v 33 16
v 34 0
v 35 14
v 36 1
v 37 3
v 38 18
v 39 17
v 40 10
v 41 21
v 42 0
v 43 16
v 44 13
v 45 13
v 46 7
v 47 10
v 48 14
v 49 2
v 50 5
v 51 4
v 52 2
v 53 1
v 54 12
v 55 17
v 56 17
v 57 8
v 58 9
v 59 0
v 60 1
v 61 21
v 62 9
v 63 18
v 64 2
v 65 12
v 66 6
v 67 6
v 68 19
v 69 15
v 70 11
v 71 7
v 72 4
v 73 7
v 74 5
v 75 1
v 76 3
v 77 8
v 78 8
v 79 24
v 80 4
v 81 8
v 82 13
v 83 8
v 84 0
v 85 11
v 86 1
v 87 20
v 88 10
v 89 11
v 90 4
v 91 23
v 92 12
v 93 21
v 94 6
v 95 0
v 96 4
v 97 4
v 98 3
v 99 5
v 100 9
v 101 5
v 102 7
v 103 1
v 104 10
v 105 14
v 106 23
v 107 1
v 108 2
v 109 14
v 110 19
v 111 13
v 112 12
v 113 0
v 114 23
v 115 3
v 116 11
v 117 0
v 118 5
v 119 20
v 120 11
v 121 24
v 122 6
v 123 22
v 124 2
v 125 10
v 126 5
v 127 13
v 128 22
v 129 15
v 130 12
v 131 17
v 132 3
v 133 6
v 134 4
v 135 3
v 136 4
v 137 2
v 138 7
v 139 15
v 140 23
v 141 16
v 142 16
v 143 2
v 144 5
v 145 22
v 146 0
v 147 6
v 148 3
v 149 23
v 150 9
v 151 15
v 152 15
v 153 6
v 154 19
v 155 0
v 156 10
v 157 13
v 158 13
v 159 4
v 160 10
v 161 19
v 162 3
v 163 11
v 164 16
v 165 9
v 166 0
v 167 0
v 168 5
v 169 19
v 170 10
v 171 7
v 172 3
v 173 0
v 174 24
v 175 3
v 176 5
v 177 19
v 178 22
v 179 16
v 180 2
v 181 9
v 182 9
v 183 13
v 184 0
v 185 22
v 186 15
v 187 11
v 188 2
v 189 11
v 190 0
v 191 4
v 192 16
v 193 21
v 194 19
v 195 13
v 196 20
v 197 16
v 198 12
v 199 15
v 200 14
v 201 5
v 202 2
v 203 21
v 204 8
v 205 14
v 206 1
v 207 19
v 208 2
v 209 5
v 210 8
v 211 19
v 212 3
v 213 7
v 214 23
v 215 10
v 216 9
v 217 1
v 218 23
v 219 17
v 220 8
v 221 1
v 222 1
v 223 4
v 224 7
v 225 22
v 226 19
v 227 9
v 228 17
v 229 15
v 230 9
v 231 2
v 232 13
v 233 4
v 234 23
v 235 8
v 236 21
v 237 12
v 238 17
v 239 23
v 240 20
v 241 11
v 242 20
v 243 9
v 244 0
v 245 17
v 246 15
v 247 0
v 248 17
v 249 5
v 250 19
v 251 12
v 252 9
v 253 10
v 254 4
v 255 0
v 256 13
v 257 1
v 258 0
v 259 13
v 260 2
v 261 16
v 262 1
v 263 12
v 264 10
v 265 18
v 266 21
v 267 5
v 268 0
v 269 24
v 270 14
v 271 9
v 272 1
v 273 12
v 274 1
v 275 16
v 276 15
v 277 21
v 278 10
v 279 21
v 280 9
v 281 18
v 282 9
v 283 8
v 284 24
v 285 2
v 286 18
v 287 13
v 288 2
v 289 0
v 290 11
v 291 19
v 292 20
v 293 15
v 294 0
v 295 22
v 296 7
v 297 2
v 298 1
v 299 13
v 300 22
v 301 19
v 302 17
v 303 7
v 304 1
v 305 5
v 306 21
v 307 24
v 308 17
v 309 0
v 310 5
v 311 24
v 312 3
v 313 7
v 314 10
v 315 16
v 316 22
v 317 2
v 318 20
v 319 18
v 320 4
v 321 5
v 322 4
v 323 10
v 324 4
v 325 6
v 326 12
v 327 0
v 328 6
v 329 11
v 330 5
v 331 2
v 332 18
v 333 13
v 334 2
v 335 4
v 336 10
v 337 17
v 338 2
v 339 17
v 340 19
v 341 22
v 342 12
v 343 7
v 344 1
v 345 10
v 346 6
v 347 20
v 348 19
v 349 14
v 350 3
v 351 0
v 352 17
v 353 4
v 354 7
v 355 6
v 356 11
v 357 9
v 358 7
v 359 1
v 360 6
v 361 21
v 362 13
v 363 10
v 364 6
v 365 18
v 366 23
v 367 23
v 368 20
v 369 9
v 370 7
v 371 7
v 372 10
v 373 4
v 374 7
v 375 12
v 376 14
v 377 22
v 378 7
v 379 19
v 380 14
v 381 15
v 382 2
v 383 18
v 384 24
v 385 24
v 386 17
v 387 11
v 388 3
v 389 11
v 390 3
v 391 14
v 392 10
v 393 17
v 394 0
v 395 22
v 396 19
v 397 20
v 398 16
v 399 1
v 400 18
v 401 20
v 402 8
v 403 18
v 404 3
v 405 21
v 406 9
v 407 16
v 408 0
v 409 19
v 410 4
v 411 5
v 412 16
v 413 22
v 414 18
v 415 18
v 416 2
v 417 15
v 418 14
v 419 18
v 420 16
v 421 20
v 422 6
v 423 16
v 424 2
v 425 12
v 426 7
v 427 8
v 428 23
v 429 21
v 430 23
v 431 9
v 432 15
v 433 2
v 434 9
v 435 2
v 436 12
v 437 21
v 438 13
v 439 10
v 440 24
v 441 3
v 442 13
v 443 20
v 444 14
v 445 24
v 446 6
v 447 10
v 448 6
v 449 19
v 450 1
